experiment/data/lkh-res/Vrp-Set-D-n323/Vrp-Set-D-n323-lkh/0.lkh1.vrp
NAME : 0
COMMENT : CVRP Instance
TYPE : CVRP
DIMENSION : 323
EDGE_WEIGHT_TYPE : EUC_2D
CAPACITY : 100
NODE_COORD_SECTION
1	40900	88400
2	18800	46900
3	84600	71500
4	20200	50900
5	71000	60600
6	31300	15900
7	59700	95500
8	59100	74300
9	39700	42800
10	43800	44600
11	43300	45900
12	57100	70000
13	44500	71800
14	54600	73500
15	32500	20200
16	33800	35100
17	36400	42700
18	65100	90600
19	34500	77400
20	31800	43900
21	44100	43600
22	54900	74300
23	12200	60000
24	49500	75900
25	34400	79800
26	45000	31300
27	15000	57500
28	32700	68300
29	17800	5400
30	64800	71000
31	32300	77400
32	71000	60600
33	9500	51700
34	32500	76300
35	57400	79300
36	52700	76600
37	78600	77700
38	38600	29400
39	62500	55800
40	44600	2600
41	31800	70500
42	19800	35100
43	92200	81000
44	18500	42300
45	78600	75700
46	79600	81900
47	56500	60900
48	54800	11000
49	30800	74300
50	30200	71600
51	30900	65200
52	100000	88800
53	58700	86200
54	26100	76600
55	97300	77000
56	54600	82200
57	59400	100000
58	59600	39100
59	29400	66600
60	28600	70300
61	22000	26500
62	24400	67600
63	66400	48400
64	66200	57700
65	23900	41400
66	29000	70600
67	14300	58300
68	95800	80900
69	53800	88900
70	60600	73100
71	46700	77300
72	52500	80700
73	58300	86400
74	83100	85900
75	29200	7000
76	54800	50900
77	33600	75400
78	21700	49300
79	49200	65100
80	53900	87400
81	40100	37700
82	45300	71700
83	26100	33300
84	23900	31800
85	68100	59700
86	61600	91200
87	19900	4100
88	28900	64700
89	49400	90300
90	24800	66400
91	31400	66600
92	70600	55600
93	28600	32700
94	67300	88900
95	55900	90300
96	29000	42400
97	19300	57900
98	80100	84500
99	25700	41000
100	0	51100
101	29300	42600
102	95700	77800
103	69400	78200
104	15000	57600
105	14000	56000
106	40000	29900
107	59100	84300
108	53600	8100
109	61800	91400
110	68300	56400
111	33100	71600
112	13100	26200
113	17300	23500
114	78400	65000
115	60400	60300
116	17500	49200
117	31000	68600
118	63700	70800
119	63100	85200
120	35300	72100
121	33400	69000
122	17100	56100
123	32300	79300
124	53000	42600
125	65700	55300
126	33500	78500
127	49600	74300
128	21500	52400
129	57600	75700
130	19100	49100
131	70900	51000
132	11500	49700
133	26900	27800
134	8700	46900
135	7600	26800
136	29500	63900
137	32300	80600
138	53000	80700
139	35100	17700
140	8500	51200
141	51400	78000
142	41500	12300
143	26800	66200
144	56700	88800
145	68400	73000
146	26400	75300
147	56900	94900
148	80700	63400
149	29800	74800
150	56800	72500
151	87900	80900
152	26800	36000
153	30000	73100
154	68800	74800
155	97600	79200
156	56200	65500
157	65500	39900
158	23000	24500
159	8600	52200
160	42500	4800
161	34400	75800
162	30600	67300
163	58600	57700
164	28500	72000
165	29500	8300
166	85300	69500
167	68700	90400
168	16700	34700
169	30700	22800
170	71800	77700
171	53200	80000
172	70200	51400
173	57100	89300
174	600	51000
175	73400	62000
176	59000	89300
177	57000	95500
178	45900	46100
179	42200	17800
180	44900	35200
181	35500	74500
182	22000	24600
183	29800	78100
184	66100	80200
185	72100	69800
186	56400	73600
187	54300	34600
188	27900	25800
189	78500	81500
190	28900	68200
191	34100	71200
192	91400	93700
193	29700	65400
194	40400	42300
195	34700	73300
196	42300	36600
197	49800	0
198	23300	23300
199	61400	47600
200	66600	49500
201	49600	42300
202	24500	25000
203	88000	79900
204	85800	63600
205	27400	66200
206	62400	51500
207	69600	60100
208	61300	94200
209	60100	86700
210	40200	19800
211	53000	90800
212	70600	71100
213	49500	79300
214	17500	47900
215	55600	7300
216	52800	79800
217	58200	31500
218	26400	26100
219	45200	3400
220	25400	49500
221	23400	49300
222	41300	18200
223	67000	71200
224	54500	94400
225	64300	74400
226	60800	72300
227	55800	72800
228	58000	90100
229	65500	74100
230	55400	80400
231	61500	72400
232	41600	17500
233	31700	64400
234	8100	32100
235	57100	96900
236	61600	89400
237	20200	51300
238	19000	44100
239	72100	56400
240	30300	66200
241	24500	24200
242	48700	42100
243	53100	82000
244	55300	72600
245	61700	93400
246	32500	63500
247	91500	71800
248	37800	43900
249	20800	51000
250	34500	75500
251	52300	45800
252	71900	56500
253	76300	71300
254	56700	90900
255	28400	66300
256	89000	77200
257	64400	80100
258	71500	72600
259	53000	89400
260	68000	50500
261	0	57200
262	8000	51100
263	32600	66400
264	81400	77000
265	35100	19900
266	95800	82100
267	50400	78200
268	2300	55800
269	80100	77900
270	43800	32000
271	65800	71500
272	28900	67000
273	62500	42500
274	44900	6000
275	45600	9000
276	33100	74200
277	55600	93200
278	43600	37300
279	42300	63500
280	8400	51300
281	54700	82300
282	29500	71900
283	51000	16000
284	32500	26800
285	45200	74700
286	24900	50800
287	23400	29300
288	92700	84100
289	13800	47000
290	63700	52200
291	49200	89700
292	16100	47200
293	64400	95300
294	73800	59800
295	67300	36800
296	63100	48800
297	58700	80800
298	25700	68400
299	56400	94900
300	33500	75600
301	19500	50800
302	81400	84000
303	77300	83500
304	10100	57600
305	32300	77300
306	74500	66100
307	90700	93600
308	27700	69600
309	16900	52700
310	69200	87500
311	61500	72500
312	72400	64600
313	69500	53300
314	66800	83700
315	57800	35900
316	68900	57800
317	66100	75000
318	32000	68400
319	36000	72400
320	33200	77100
321	27600	63100
322	11700	51700
323	44000	43700
DEMAND_SECTION
1	0
2	7
3	7
4	10
5	10
6	4
7	3
8	5
9	3
10	7
11	8
12	6
13	4
14	6
15	7
16	5
17	12
18	5
19	11
20	7
21	9
22	3
23	6
24	6
25	3
26	3
27	5
28	5
29	10
30	14
31	6
32	7
33	10
34	7
35	6
36	4
37	7
38	5
39	5
40	9
41	5
42	6
43	10
44	8
45	7
46	6
47	4
48	9
49	4
50	4
51	11
52	4
53	6
54	4
55	6
56	4
57	10
58	5
59	7
60	4
61	4
62	6
63	4
64	8
65	6
66	6
67	4
68	10
69	6
70	2
71	4
72	4
73	5
74	5
75	11
76	6
77	8
78	5
79	3
80	9
81	7
82	5
83	5
84	7
85	7
86	3
87	15
88	5
89	5
90	6
91	8
92	9
93	5
94	5
95	5
96	14
97	4
98	7
99	8
100	4
101	5
102	6
103	10
104	8
105	5
106	6
107	6
108	9
109	4
110	5
111	5
112	9
113	8
114	11
115	4
116	7
117	7
118	5
119	6
120	8
121	6
122	5
123	5
124	9
125	4
126	3
127	7
128	9
129	5
130	9
131	6
132	6
133	9
134	7
135	3
136	6
137	5
138	8
139	7
140	11
141	6
142	4
143	11
144	4
145	8
146	7
147	8
148	16
149	7
150	6
151	7
152	5
153	4
154	3
155	4
156	7
157	4
158	6
159	10
160	12
161	6
162	9
163	3
164	7
165	9
166	9
167	10
168	5
169	8
170	9
171	5
172	4
173	3
174	5
175	12
176	11
177	5
178	4
179	4
180	4
181	6
182	4
183	4
184	2
185	4
186	13
187	6
188	5
189	4
190	2
191	10
192	5
193	6
194	4
195	6
196	4
197	5
198	7
199	7
200	7
201	5
202	5
203	5
204	7
205	6
206	6
207	7
208	8
209	9
210	7
211	4
212	8
213	3
214	6
215	7
216	5
217	5
218	7
219	6
220	2
221	5
222	12
223	11
224	8
225	9
226	5
227	17
228	9
229	5
230	5
231	11
232	3
233	5
234	2
235	7
236	11
237	6
238	6
239	7
240	4
241	8
242	6
243	6
244	9
245	3
246	8
247	5
248	4
249	11
250	6
251	16
252	6
253	7
254	4
255	6
256	5
257	6
258	4
259	9
260	5
261	7
262	5
263	7
264	6
265	7
266	7
267	6
268	6
269	9
270	4
271	5
272	6
273	6
274	4
275	4
276	6
277	7
278	5
279	7
280	5
281	10
282	7
283	4
284	7
285	6
286	11
287	4
288	8
289	13
290	6
291	4
292	8
293	8
294	7
295	4
296	9
297	7
298	5
299	4
300	8
301	7
302	6
303	6
304	5
305	6
306	11
307	7
308	5
309	2
310	7
311	4
312	16
313	5
314	10
315	4
316	3
317	10
318	6
319	6
320	7
321	9
322	8
323	5
DEPOT_SECTION
1
-1
EOF
