experiment/data/lkh-res/Vrp-Set-D-n323/Vrp-Set-D-n323-lkh/0.lkh1.tour
NAME : 0.2246848.tour
COMMENT : Length = 2246848
COMMENT : Found by LKH-3 [Keld Helsgaun] Tue Apr  9 01:19:49 2024
TYPE : TOUR
DIMENSION : 343
TOUR_SECTION
1
89
211
277
177
235
57
293
18
167
94
314
119
209
80
334
41
88
321
128
249
237
4
301
130
78
221
220
286
136
339
226
207
5
32
175
294
239
252
92
110
316
85
244
14
326
137
123
31
305
320
34
300
77
276
195
181
250
161
19
25
324
217
283
48
108
215
197
219
40
160
274
275
142
232
179
222
26
327
281
56
138
171
216
22
227
186
129
35
297
107
53
73
337
243
230
225
229
317
145
223
271
30
118
231
311
70
8
343
291
259
69
95
254
228
176
236
86
109
245
208
7
147
299
224
331
178
270
210
265
139
6
165
75
87
29
113
112
135
234
335
319
120
191
121
263
91
51
193
59
240
162
117
318
111
330
213
267
47
163
206
296
199
273
157
295
58
315
187
180
278
81
17
248
333
24
127
156
115
39
290
63
200
260
131
172
313
125
64
12
150
36
141
338
72
212
185
312
306
114
148
204
166
3
258
154
342
285
82
13
279
11
10
323
21
242
201
124
251
76
79
71
332
183
146
67
105
33
159
280
140
262
174
100
261
268
304
23
54
325
307
192
52
288
43
266
68
155
55
102
247
256
203
151
74
302
340
99
65
42
168
61
182
158
198
241
202
287
84
83
152
96
101
328
9
194
196
106
38
284
15
169
188
218
133
93
16
20
246
233
28
336
149
164
308
298
62
90
143
205
255
272
190
60
66
50
282
153
49
126
329
104
27
322
132
134
289
292
44
238
2
214
116
309
122
97
341
257
184
103
170
253
45
264
269
37
189
46
98
303
310
173
144
-1
EOF
